instances/knapsack/discrete/knapsack_90_8.lp
\ Model knapsack_90_8
\ LP format - for model browsing. Use MPS format to capture full model detail.
\ Signature: 0xc29ff4c0dcb79651
Minimize
  - 12 x[0] - x[1] - 46 x[2] - 42 x[3] - 68 x[4] - 35 x[5] - 100 x[6]
   - 70 x[7] - 13 x[8] - 77 x[9] - 45 x[10] - 73 x[11] - 53 x[12]
   - 68 x[13] - 61 x[14] - 54 x[15] - 44 x[16] - 24 x[17] - 65 x[18]
   - 88 x[19] - 40 x[20] - 17 x[21] - 98 x[22] - 2 x[23] - 3 x[24]
   - 57 x[25] - 26 x[26] - 54 x[27] - 40 x[28] - 87 x[29] - 39 x[30]
   - 10 x[31] - 22 x[32] - 29 x[33] - 78 x[34] - 7 x[35] - 31 x[36] - x[37]
   - 53 x[38] - 86 x[39] - 70 x[40] - 16 x[41] - 44 x[42] - 61 x[43]
   - 61 x[44] - 53 x[45] - 63 x[46] - 67 x[47] - 99 x[48] - 60 x[49]
   - 77 x[50] - 61 x[51] - 73 x[52] - 71 x[53] - 74 x[54] - 88 x[55]
   - 13 x[56] - 14 x[57] - 50 x[58] - 85 x[59] - 50 x[60] - 40 x[61]
   - 72 x[62] - 40 x[63] - 41 x[64] - 59 x[65] - 63 x[66] - 84 x[67]
   - 19 x[68] - 92 x[69] - 63 x[70] - x[71] - 7 x[72] - 88 x[73] - 45 x[74]
   - 88 x[75] - 56 x[76] - 43 x[77] - 78 x[78] - 14 x[79] - 29 x[80]
   - 72 x[81] - 48 x[82] - 92 x[83] - 35 x[84] - 19 x[85] - 72 x[86]
   - 37 x[87] - 14 x[88] - 89 x[89]
Subject To
 primal_upper: 58 x[0] + 18 x[1] + 52 x[2] + 85 x[3] + 34 x[4] + 24 x[5]
   + 19 x[6] + 54 x[7] + 63 x[8] + 4 x[9] + 2 x[10] + x[11] + 82 x[12]
   + 42 x[13] + 31 x[14] + 59 x[15] + 59 x[16] + 66 x[17] + 7 x[18]
   + 8 x[19] + 75 x[20] + 18 x[21] + 90 x[22] + 29 x[23] + 11 x[24]
   + 70 x[25] + 12 x[26] + 94 x[27] + 100 x[28] + 65 x[29] + 84 x[30]
   + 6 x[31] + 66 x[32] + 35 x[33] + 34 x[34] + 75 x[35] + 50 x[36]
   + 39 x[37] + 86 x[38] + 25 x[39] + 93 x[40] + 56 x[41] + 92 x[42]
   + 80 x[43] + 41 x[44] + 17 x[45] + 44 x[46] + 68 x[47] + 85 x[48]
   + 54 x[49] + 21 x[50] + 86 x[51] + 91 x[52] + 42 x[53] + 51 x[54]
   + 30 x[55] + 19 x[56] + 9 x[57] + 26 x[58] + 84 x[59] + 91 x[60]
   + 5 x[61] + 18 x[62] + 57 x[63] + 2 x[64] + 38 x[65] + 83 x[66]
   + 65 x[67] + 82 x[68] + 68 x[69] + 52 x[70] + 32 x[71] + 24 x[72]
   + 21 x[73] + 82 x[74] + 15 x[75] + 45 x[76] + 89 x[77] + 3 x[78]
   + 97 x[79] + 40 x[80] + 56 x[81] + 9 x[82] + 40 x[83] + 68 x[84]
   + 80 x[85] + 54 x[86] + 18 x[87] + 4 x[88] + 89 x[89] + 5.8 r[0]
   + 1.8 r[1] + 5.2 r[2] + 8.5 r[3] + 3.4 r[4] + 2.4 r[5] + 1.9 r[6]
   + 5.4 r[7] + 6.3 r[8] + 0.4 r[9] + 0.2 r[10] + 0.1 r[11] + 8.2 r[12]
   + 4.2 r[13] + 3.1 r[14] + 5.9 r[15] + 5.9 r[16] + 6.6 r[17] + 0.7 r[18]
   + 0.8 r[19] + 7.5 r[20] + 1.8 r[21] + 9 r[22] + 2.9 r[23] + 1.1 r[24]
   + 7 r[25] + 1.2 r[26] + 9.4 r[27] + 10 r[28] + 6.5 r[29] + 8.4 r[30]
   + 0.6 r[31] + 6.6 r[32] + 3.5 r[33] + 3.4 r[34] + 7.5 r[35] + 5 r[36]
   + 3.9 r[37] + 8.6 r[38] + 2.5 r[39] + 9.3 r[40] + 5.6 r[41] + 9.2 r[42]
   + 8 r[43] + 4.1 r[44] + 1.7 r[45] + 4.4 r[46] + 6.8 r[47] + 8.5 r[48]
   + 5.4 r[49] + 2.1 r[50] + 8.6 r[51] + 9.1 r[52] + 4.2 r[53] + 5.1 r[54]
   + 3 r[55] + 1.9 r[56] + 0.9 r[57] + 2.6 r[58] + 8.4 r[59] + 9.1 r[60]
   + 0.5 r[61] + 1.8 r[62] + 5.7 r[63] + 0.2 r[64] + 3.8 r[65] + 8.3 r[66]
   + 6.5 r[67] + 8.2 r[68] + 6.8 r[69] + 5.2 r[70] + 3.2 r[71] + 2.4 r[72]
   + 2.1 r[73] + 8.2 r[74] + 1.5 r[75] + 4.5 r[76] + 8.9 r[77] + 0.3 r[78]
   + 9.7 r[79] + 4 r[80] + 5.6 r[81] + 0.9 r[82] + 4 r[83] + 6.8 r[84]
   + 8 r[85] + 5.4 r[86] + 1.8 r[87] + 0.4 r[88] + 8.9 r[89] <= 414
 primal_lower: 3.503337453223785 x[0] + 1.657163252647338 x[1]
   + 2.67455962782056 x[2] + 5.162019565017883 x[3]
   + 4.780819277157943 x[4] + 1.202017871288837 x[5]
   + 1.184822682402419 x[6] + 1.400070762563403 x[7]
   + 0.09888569071209 x[8] + 1.10439129259854 x[9] + 5.12043091543674 x[10]
   + 0.2281948580081405 x[11] + 1.676668400289884 x[12]
   + 4.747897850820174 x[13] + 2.733254021643773 x[14]
   + 5.173808072736943 x[15] + 3.960536642984096 x[16]
   + 4.310501378643383 x[17] + 0.1904877273479114 x[18]
   + 1.815890570251389 x[19] + 4.412117045716229 x[20]
   + 1.585666541392181 x[21] + 2.336084680591444 x[22]
   + 1.210519456995696 x[23] + 1.617172175953812 x[24]
   + 4.551648617264355 x[25] + 4.751033691741217 x[26]
   + 4.711901066787568 x[27] + 0.3807766923568612 x[28]
   + 1.676372264093621 x[29] + 2.074141403933692 x[30]
   + 1.090326403571643 x[31] + 0.607390561178438 x[32]
   + 4.181132188584247 x[33] + 2.115497927782913 x[34]
   + 2.272063972015194 x[35] + 0.0350328678176985 x[36]
   + 4.155041886344791 x[37] + 3.989462936599415 x[38]
   + 0.2606037743451274 x[39] + 3.949815609104206 x[40]
   + 2.566574049463636 x[41] + 0.3241817954148863 x[42]
   + 4.43045463914771 x[43] + 4.165408887560085 x[44]
   + 4.545700251223242 x[45] + 4.765992776990503 x[46]
   + 3.699816323827842 x[47] + 3.518611083575163 x[48]
   + 3.15701624584104 x[49] + 2.995360550026603 x[50]
   + 2.771006191662522 x[51] + 4.324229673037832 x[52]
   + 1.703257432071541 x[53] + 3.932971797042891 x[54]
   + 1.621321681422792 x[55] + 3.062148648251735 x[56]
   + 2.596394295905342 x[57] + 0.8004226056275643 x[58]
   + 2.235995917491178 x[59] + 2.209626385827867 x[60]
   + 1.40549587418202 x[61] + 5.086637532871507 x[62]
   + 0.9252183846053395 x[63] + 0.3057574367101876 x[64]
   + 2.899144348551781 x[65] + 3.196601984150286 x[66]
   + 2.647625206198339 x[67] + 0.9946593855870715 x[68]
   + 0.3834939076088197 x[69] + 4.903071081621269 x[70]
   + 3.332592730205512 x[71] + 1.350430802577666 x[72]
   + 1.708968994019124 x[73] + 4.456151954290542 x[74]
   + 1.518429229208605 x[75] + 2.529782141535704 x[76]
   + 1.45311222537246 x[77] + 1.787980523820784 x[78]
   + 3.859890116173522 x[79] + 3.497556127688712 x[80]
   + 2.459985730384732 x[81] + 0.0315787689536313 x[82]
   + 0.8346149042403054 x[83] + 1.612271971133478 x[84]
   + 0.3287774228069878 x[85] + 4.029043546489676 x[86]
   + 0.081532981558205 x[87] + 3.255930756689344 x[88]
   + 4.684839430257703 x[89] + 42 u[0] + 67 u[1] + 21 u[2] + 18 u[3]
   + 59 u[4] + 92 u[5] + 84 u[6] + 82 u[7] + 36 u[8] + 17 u[9] + 2 u[10]
   + 10 u[11] + 27 u[12] + 19 u[13] + 59 u[14] + 3 u[15] + 100 u[16]
   + 51 u[17] + 84 u[18] + u[19] + 76 u[20] + 78 u[21] + 3 u[22] + 89 u[23]
   + 31 u[24] + 67 u[25] + 13 u[26] + 66 u[27] + 32 u[28] + 50 u[29]
   + 84 u[30] + 10 u[31] + 50 u[32] + 68 u[33] + 19 u[34] + 4 u[35]
   + 11 u[36] + 55 u[37] + 87 u[38] + 97 u[39] + 26 u[40] + 92 u[41]
   + 85 u[42] + 76 u[43] + 78 u[44] + u[45] + 92 u[46] + 68 u[47]
   + 38 u[48] + 75 u[49] + 17 u[50] + 51 u[51] + 100 u[52] + 43 u[53]
   + 47 u[54] + 6 u[55] + 84 u[56] + 85 u[57] + 99 u[58] + 53 u[59]
   + 87 u[60] + 49 u[61] + 98 u[62] + 81 u[63] + 22 u[64] + 99 u[65]
   + 99 u[66] + 97 u[67] + 51 u[68] + 92 u[69] + 72 u[70] + 96 u[71]
   + 97 u[72] + 22 u[73] + 34 u[74] + 7 u[75] + 65 u[76] + 94 u[77]
   + 71 u[78] + 17 u[79] + 72 u[80] + 72 u[81] + 73 u[82] + 100 u[83]
   + 16 u[84] + 40 u[85] + 34 u[86] + 19 u[87] + 5 u[88] + 94 u[89]
   <= 18307
 mccormick1[0]: - u[0] + r[0] <= 0
 mccormick1[1]: - u[1] + r[1] <= 0
 mccormick1[2]: - u[2] + r[2] <= 0
 mccormick1[3]: - u[3] + r[3] <= 0
 mccormick1[4]: - u[4] + r[4] <= 0
 mccormick1[5]: - u[5] + r[5] <= 0
 mccormick1[6]: - u[6] + r[6] <= 0
 mccormick1[7]: - u[7] + r[7] <= 0
 mccormick1[8]: - u[8] + r[8] <= 0
 mccormick1[9]: - u[9] + r[9] <= 0
 mccormick1[10]: - u[10] + r[10] <= 0
 mccormick1[11]: - u[11] + r[11] <= 0
 mccormick1[12]: - u[12] + r[12] <= 0
 mccormick1[13]: - u[13] + r[13] <= 0
 mccormick1[14]: - u[14] + r[14] <= 0
 mccormick1[15]: - u[15] + r[15] <= 0
 mccormick1[16]: - u[16] + r[16] <= 0
 mccormick1[17]: - u[17] + r[17] <= 0
 mccormick1[18]: - u[18] + r[18] <= 0
 mccormick1[19]: - u[19] + r[19] <= 0
 mccormick1[20]: - u[20] + r[20] <= 0
 mccormick1[21]: - u[21] + r[21] <= 0
 mccormick1[22]: - u[22] + r[22] <= 0
 mccormick1[23]: - u[23] + r[23] <= 0
 mccormick1[24]: - u[24] + r[24] <= 0
 mccormick1[25]: - u[25] + r[25] <= 0
 mccormick1[26]: - u[26] + r[26] <= 0
 mccormick1[27]: - u[27] + r[27] <= 0
 mccormick1[28]: - u[28] + r[28] <= 0
 mccormick1[29]: - u[29] + r[29] <= 0
 mccormick1[30]: - u[30] + r[30] <= 0
 mccormick1[31]: - u[31] + r[31] <= 0
 mccormick1[32]: - u[32] + r[32] <= 0
 mccormick1[33]: - u[33] + r[33] <= 0
 mccormick1[34]: - u[34] + r[34] <= 0
 mccormick1[35]: - u[35] + r[35] <= 0
 mccormick1[36]: - u[36] + r[36] <= 0
 mccormick1[37]: - u[37] + r[37] <= 0
 mccormick1[38]: - u[38] + r[38] <= 0
 mccormick1[39]: - u[39] + r[39] <= 0
 mccormick1[40]: - u[40] + r[40] <= 0
 mccormick1[41]: - u[41] + r[41] <= 0
 mccormick1[42]: - u[42] + r[42] <= 0
 mccormick1[43]: - u[43] + r[43] <= 0
 mccormick1[44]: - u[44] + r[44] <= 0
 mccormick1[45]: - u[45] + r[45] <= 0
 mccormick1[46]: - u[46] + r[46] <= 0
 mccormick1[47]: - u[47] + r[47] <= 0
 mccormick1[48]: - u[48] + r[48] <= 0
 mccormick1[49]: - u[49] + r[49] <= 0
 mccormick1[50]: - u[50] + r[50] <= 0
 mccormick1[51]: - u[51] + r[51] <= 0
 mccormick1[52]: - u[52] + r[52] <= 0
 mccormick1[53]: - u[53] + r[53] <= 0
 mccormick1[54]: - u[54] + r[54] <= 0
 mccormick1[55]: - u[55] + r[55] <= 0
 mccormick1[56]: - u[56] + r[56] <= 0
 mccormick1[57]: - u[57] + r[57] <= 0
 mccormick1[58]: - u[58] + r[58] <= 0
 mccormick1[59]: - u[59] + r[59] <= 0
 mccormick1[60]: - u[60] + r[60] <= 0
 mccormick1[61]: - u[61] + r[61] <= 0
 mccormick1[62]: - u[62] + r[62] <= 0
 mccormick1[63]: - u[63] + r[63] <= 0
 mccormick1[64]: - u[64] + r[64] <= 0
 mccormick1[65]: - u[65] + r[65] <= 0
 mccormick1[66]: - u[66] + r[66] <= 0
 mccormick1[67]: - u[67] + r[67] <= 0
 mccormick1[68]: - u[68] + r[68] <= 0
 mccormick1[69]: - u[69] + r[69] <= 0
 mccormick1[70]: - u[70] + r[70] <= 0
 mccormick1[71]: - u[71] + r[71] <= 0
 mccormick1[72]: - u[72] + r[72] <= 0
 mccormick1[73]: - u[73] + r[73] <= 0
 mccormick1[74]: - u[74] + r[74] <= 0
 mccormick1[75]: - u[75] + r[75] <= 0
 mccormick1[76]: - u[76] + r[76] <= 0
 mccormick1[77]: - u[77] + r[77] <= 0
 mccormick1[78]: - u[78] + r[78] <= 0
 mccormick1[79]: - u[79] + r[79] <= 0
 mccormick1[80]: - u[80] + r[80] <= 0
 mccormick1[81]: - u[81] + r[81] <= 0
 mccormick1[82]: - u[82] + r[82] <= 0
 mccormick1[83]: - u[83] + r[83] <= 0
 mccormick1[84]: - u[84] + r[84] <= 0
 mccormick1[85]: - u[85] + r[85] <= 0
 mccormick1[86]: - u[86] + r[86] <= 0
 mccormick1[87]: - u[87] + r[87] <= 0
 mccormick1[88]: - u[88] + r[88] <= 0
 mccormick1[89]: - u[89] + r[89] <= 0
 mccormick2[0]: - x[0] + r[0] <= 0
 mccormick2[1]: - x[1] + r[1] <= 0
 mccormick2[2]: - x[2] + r[2] <= 0
 mccormick2[3]: - x[3] + r[3] <= 0
 mccormick2[4]: - x[4] + r[4] <= 0
 mccormick2[5]: - x[5] + r[5] <= 0
 mccormick2[6]: - x[6] + r[6] <= 0
 mccormick2[7]: - x[7] + r[7] <= 0
 mccormick2[8]: - x[8] + r[8] <= 0
 mccormick2[9]: - x[9] + r[9] <= 0
 mccormick2[10]: - x[10] + r[10] <= 0
 mccormick2[11]: - x[11] + r[11] <= 0
 mccormick2[12]: - x[12] + r[12] <= 0
 mccormick2[13]: - x[13] + r[13] <= 0
 mccormick2[14]: - x[14] + r[14] <= 0
 mccormick2[15]: - x[15] + r[15] <= 0
 mccormick2[16]: - x[16] + r[16] <= 0
 mccormick2[17]: - x[17] + r[17] <= 0
 mccormick2[18]: - x[18] + r[18] <= 0
 mccormick2[19]: - x[19] + r[19] <= 0
 mccormick2[20]: - x[20] + r[20] <= 0
 mccormick2[21]: - x[21] + r[21] <= 0
 mccormick2[22]: - x[22] + r[22] <= 0
 mccormick2[23]: - x[23] + r[23] <= 0
 mccormick2[24]: - x[24] + r[24] <= 0
 mccormick2[25]: - x[25] + r[25] <= 0
 mccormick2[26]: - x[26] + r[26] <= 0
 mccormick2[27]: - x[27] + r[27] <= 0
 mccormick2[28]: - x[28] + r[28] <= 0
 mccormick2[29]: - x[29] + r[29] <= 0
 mccormick2[30]: - x[30] + r[30] <= 0
 mccormick2[31]: - x[31] + r[31] <= 0
 mccormick2[32]: - x[32] + r[32] <= 0
 mccormick2[33]: - x[33] + r[33] <= 0
 mccormick2[34]: - x[34] + r[34] <= 0
 mccormick2[35]: - x[35] + r[35] <= 0
 mccormick2[36]: - x[36] + r[36] <= 0
 mccormick2[37]: - x[37] + r[37] <= 0
 mccormick2[38]: - x[38] + r[38] <= 0
 mccormick2[39]: - x[39] + r[39] <= 0
 mccormick2[40]: - x[40] + r[40] <= 0
 mccormick2[41]: - x[41] + r[41] <= 0
 mccormick2[42]: - x[42] + r[42] <= 0
 mccormick2[43]: - x[43] + r[43] <= 0
 mccormick2[44]: - x[44] + r[44] <= 0
 mccormick2[45]: - x[45] + r[45] <= 0
 mccormick2[46]: - x[46] + r[46] <= 0
 mccormick2[47]: - x[47] + r[47] <= 0
 mccormick2[48]: - x[48] + r[48] <= 0
 mccormick2[49]: - x[49] + r[49] <= 0
 mccormick2[50]: - x[50] + r[50] <= 0
 mccormick2[51]: - x[51] + r[51] <= 0
 mccormick2[52]: - x[52] + r[52] <= 0
 mccormick2[53]: - x[53] + r[53] <= 0
 mccormick2[54]: - x[54] + r[54] <= 0
 mccormick2[55]: - x[55] + r[55] <= 0
 mccormick2[56]: - x[56] + r[56] <= 0
 mccormick2[57]: - x[57] + r[57] <= 0
 mccormick2[58]: - x[58] + r[58] <= 0
 mccormick2[59]: - x[59] + r[59] <= 0
 mccormick2[60]: - x[60] + r[60] <= 0
 mccormick2[61]: - x[61] + r[61] <= 0
 mccormick2[62]: - x[62] + r[62] <= 0
 mccormick2[63]: - x[63] + r[63] <= 0
 mccormick2[64]: - x[64] + r[64] <= 0
 mccormick2[65]: - x[65] + r[65] <= 0
 mccormick2[66]: - x[66] + r[66] <= 0
 mccormick2[67]: - x[67] + r[67] <= 0
 mccormick2[68]: - x[68] + r[68] <= 0
 mccormick2[69]: - x[69] + r[69] <= 0
 mccormick2[70]: - x[70] + r[70] <= 0
 mccormick2[71]: - x[71] + r[71] <= 0
 mccormick2[72]: - x[72] + r[72] <= 0
 mccormick2[73]: - x[73] + r[73] <= 0
 mccormick2[74]: - x[74] + r[74] <= 0
 mccormick2[75]: - x[75] + r[75] <= 0
 mccormick2[76]: - x[76] + r[76] <= 0
 mccormick2[77]: - x[77] + r[77] <= 0
 mccormick2[78]: - x[78] + r[78] <= 0
 mccormick2[79]: - x[79] + r[79] <= 0
 mccormick2[80]: - x[80] + r[80] <= 0
 mccormick2[81]: - x[81] + r[81] <= 0
 mccormick2[82]: - x[82] + r[82] <= 0
 mccormick2[83]: - x[83] + r[83] <= 0
 mccormick2[84]: - x[84] + r[84] <= 0
 mccormick2[85]: - x[85] + r[85] <= 0
 mccormick2[86]: - x[86] + r[86] <= 0
 mccormick2[87]: - x[87] + r[87] <= 0
 mccormick2[88]: - x[88] + r[88] <= 0
 mccormick2[89]: - x[89] + r[89] <= 0
 mccormick3[0]: x[0] + u[0] - r[0] <= 1
 mccormick3[1]: x[1] + u[1] - r[1] <= 1
 mccormick3[2]: x[2] + u[2] - r[2] <= 1
 mccormick3[3]: x[3] + u[3] - r[3] <= 1
 mccormick3[4]: x[4] + u[4] - r[4] <= 1
 mccormick3[5]: x[5] + u[5] - r[5] <= 1
 mccormick3[6]: x[6] + u[6] - r[6] <= 1
 mccormick3[7]: x[7] + u[7] - r[7] <= 1
 mccormick3[8]: x[8] + u[8] - r[8] <= 1
 mccormick3[9]: x[9] + u[9] - r[9] <= 1
 mccormick3[10]: x[10] + u[10] - r[10] <= 1
 mccormick3[11]: x[11] + u[11] - r[11] <= 1
 mccormick3[12]: x[12] + u[12] - r[12] <= 1
 mccormick3[13]: x[13] + u[13] - r[13] <= 1
 mccormick3[14]: x[14] + u[14] - r[14] <= 1
 mccormick3[15]: x[15] + u[15] - r[15] <= 1
 mccormick3[16]: x[16] + u[16] - r[16] <= 1
 mccormick3[17]: x[17] + u[17] - r[17] <= 1
 mccormick3[18]: x[18] + u[18] - r[18] <= 1
 mccormick3[19]: x[19] + u[19] - r[19] <= 1
 mccormick3[20]: x[20] + u[20] - r[20] <= 1
 mccormick3[21]: x[21] + u[21] - r[21] <= 1
 mccormick3[22]: x[22] + u[22] - r[22] <= 1
 mccormick3[23]: x[23] + u[23] - r[23] <= 1
 mccormick3[24]: x[24] + u[24] - r[24] <= 1
 mccormick3[25]: x[25] + u[25] - r[25] <= 1
 mccormick3[26]: x[26] + u[26] - r[26] <= 1
 mccormick3[27]: x[27] + u[27] - r[27] <= 1
 mccormick3[28]: x[28] + u[28] - r[28] <= 1
 mccormick3[29]: x[29] + u[29] - r[29] <= 1
 mccormick3[30]: x[30] + u[30] - r[30] <= 1
 mccormick3[31]: x[31] + u[31] - r[31] <= 1
 mccormick3[32]: x[32] + u[32] - r[32] <= 1
 mccormick3[33]: x[33] + u[33] - r[33] <= 1
 mccormick3[34]: x[34] + u[34] - r[34] <= 1
 mccormick3[35]: x[35] + u[35] - r[35] <= 1
 mccormick3[36]: x[36] + u[36] - r[36] <= 1
 mccormick3[37]: x[37] + u[37] - r[37] <= 1
 mccormick3[38]: x[38] + u[38] - r[38] <= 1
 mccormick3[39]: x[39] + u[39] - r[39] <= 1
 mccormick3[40]: x[40] + u[40] - r[40] <= 1
 mccormick3[41]: x[41] + u[41] - r[41] <= 1
 mccormick3[42]: x[42] + u[42] - r[42] <= 1
 mccormick3[43]: x[43] + u[43] - r[43] <= 1
 mccormick3[44]: x[44] + u[44] - r[44] <= 1
 mccormick3[45]: x[45] + u[45] - r[45] <= 1
 mccormick3[46]: x[46] + u[46] - r[46] <= 1
 mccormick3[47]: x[47] + u[47] - r[47] <= 1
 mccormick3[48]: x[48] + u[48] - r[48] <= 1
 mccormick3[49]: x[49] + u[49] - r[49] <= 1
 mccormick3[50]: x[50] + u[50] - r[50] <= 1
 mccormick3[51]: x[51] + u[51] - r[51] <= 1
 mccormick3[52]: x[52] + u[52] - r[52] <= 1
 mccormick3[53]: x[53] + u[53] - r[53] <= 1
 mccormick3[54]: x[54] + u[54] - r[54] <= 1
 mccormick3[55]: x[55] + u[55] - r[55] <= 1
 mccormick3[56]: x[56] + u[56] - r[56] <= 1
 mccormick3[57]: x[57] + u[57] - r[57] <= 1
 mccormick3[58]: x[58] + u[58] - r[58] <= 1
 mccormick3[59]: x[59] + u[59] - r[59] <= 1
 mccormick3[60]: x[60] + u[60] - r[60] <= 1
 mccormick3[61]: x[61] + u[61] - r[61] <= 1
 mccormick3[62]: x[62] + u[62] - r[62] <= 1
 mccormick3[63]: x[63] + u[63] - r[63] <= 1
 mccormick3[64]: x[64] + u[64] - r[64] <= 1
 mccormick3[65]: x[65] + u[65] - r[65] <= 1
 mccormick3[66]: x[66] + u[66] - r[66] <= 1
 mccormick3[67]: x[67] + u[67] - r[67] <= 1
 mccormick3[68]: x[68] + u[68] - r[68] <= 1
 mccormick3[69]: x[69] + u[69] - r[69] <= 1
 mccormick3[70]: x[70] + u[70] - r[70] <= 1
 mccormick3[71]: x[71] + u[71] - r[71] <= 1
 mccormick3[72]: x[72] + u[72] - r[72] <= 1
 mccormick3[73]: x[73] + u[73] - r[73] <= 1
 mccormick3[74]: x[74] + u[74] - r[74] <= 1
 mccormick3[75]: x[75] + u[75] - r[75] <= 1
 mccormick3[76]: x[76] + u[76] - r[76] <= 1
 mccormick3[77]: x[77] + u[77] - r[77] <= 1
 mccormick3[78]: x[78] + u[78] - r[78] <= 1
 mccormick3[79]: x[79] + u[79] - r[79] <= 1
 mccormick3[80]: x[80] + u[80] - r[80] <= 1
 mccormick3[81]: x[81] + u[81] - r[81] <= 1
 mccormick3[82]: x[82] + u[82] - r[82] <= 1
 mccormick3[83]: x[83] + u[83] - r[83] <= 1
 mccormick3[84]: x[84] + u[84] - r[84] <= 1
 mccormick3[85]: x[85] + u[85] - r[85] <= 1
 mccormick3[86]: x[86] + u[86] - r[86] <= 1
 mccormick3[87]: x[87] + u[87] - r[87] <= 1
 mccormick3[88]: x[88] + u[88] - r[88] <= 1
 mccormick3[89]: x[89] + u[89] - r[89] <= 1
Bounds
Binaries
 x[0] x[1] x[2] x[3] x[4] x[5] x[6] x[7] x[8] x[9] x[10] x[11] x[12] x[13]
 x[14] x[15] x[16] x[17] x[18] x[19] x[20] x[21] x[22] x[23] x[24] x[25]
 x[26] x[27] x[28] x[29] x[30] x[31] x[32] x[33] x[34] x[35] x[36] x[37]
 x[38] x[39] x[40] x[41] x[42] x[43] x[44] x[45] x[46] x[47] x[48] x[49]
 x[50] x[51] x[52] x[53] x[54] x[55] x[56] x[57] x[58] x[59] x[60] x[61]
 x[62] x[63] x[64] x[65] x[66] x[67] x[68] x[69] x[70] x[71] x[72] x[73]
 x[74] x[75] x[76] x[77] x[78] x[79] x[80] x[81] x[82] x[83] x[84] x[85]
 x[86] x[87] x[88] x[89] u[0] u[1] u[2] u[3] u[4] u[5] u[6] u[7] u[8] u[9]
 u[10] u[11] u[12] u[13] u[14] u[15] u[16] u[17] u[18] u[19] u[20] u[21]
 u[22] u[23] u[24] u[25] u[26] u[27] u[28] u[29] u[30] u[31] u[32] u[33]
 u[34] u[35] u[36] u[37] u[38] u[39] u[40] u[41] u[42] u[43] u[44] u[45]
 u[46] u[47] u[48] u[49] u[50] u[51] u[52] u[53] u[54] u[55] u[56] u[57]
 u[58] u[59] u[60] u[61] u[62] u[63] u[64] u[65] u[66] u[67] u[68] u[69]
 u[70] u[71] u[72] u[73] u[74] u[75] u[76] u[77] u[78] u[79] u[80] u[81]
 u[82] u[83] u[84] u[85] u[86] u[87] u[88] u[89] r[0] r[1] r[2] r[3] r[4]
 r[5] r[6] r[7] r[8] r[9] r[10] r[11] r[12] r[13] r[14] r[15] r[16] r[17]
 r[18] r[19] r[20] r[21] r[22] r[23] r[24] r[25] r[26] r[27] r[28] r[29]
 r[30] r[31] r[32] r[33] r[34] r[35] r[36] r[37] r[38] r[39] r[40] r[41]
 r[42] r[43] r[44] r[45] r[46] r[47] r[48] r[49] r[50] r[51] r[52] r[53]
 r[54] r[55] r[56] r[57] r[58] r[59] r[60] r[61] r[62] r[63] r[64] r[65]
 r[66] r[67] r[68] r[69] r[70] r[71] r[72] r[73] r[74] r[75] r[76] r[77]
 r[78] r[79] r[80] r[81] r[82] r[83] r[84] r[85] r[86] r[87] r[88] r[89]
End
