instances/knapsack/discrete/knapsack_90_8.kp
20270
90
414

58 5.8 12
18 1.8 1
52 5.2 46
85 8.5 42
34 3.4 68
24 2.4 35
19 1.9 100
54 5.4 70
63 6.3 13
4 0.4 77
2 0.2 45
1 0.1 73
82 8.2 53
42 4.2 68
31 3.1 61
59 5.9 54
59 5.9 44
66 6.6 24
7 0.7 65
8 0.8 88
75 7.5 40
18 1.8 17
90 9.0 98
29 2.9 2
11 1.1 3
70 7.0 57
12 1.2 26
94 9.4 54
100 10.0 40
65 6.5 87
84 8.4 39
6 0.6 10
66 6.6 22
35 3.5 29
34 3.4 78
75 7.5 7
50 5.0 31
39 3.9 1
86 8.6 53
25 2.5 86
93 9.3 70
56 5.6 16
92 9.2 44
80 8.0 61
41 4.1 61
17 1.7 53
44 4.4 63
68 6.8 67
85 8.5 99
54 5.4 60
21 2.1 77
86 8.6 61
91 9.1 73
42 4.2 71
51 5.1 74
30 3.0 88
19 1.9 13
9 0.9 14
26 2.6 50
84 8.4 85
91 9.1 50
5 0.5 40
18 1.8 72
57 5.7 40
2 0.2 41
38 3.8 59
83 8.3 63
65 6.5 84
82 8.2 19
68 6.8 92
52 5.2 63
32 3.2 1
24 2.4 7
21 2.1 88
82 8.2 45
15 1.5 88
45 4.5 56
89 8.9 43
3 0.3 78
97 9.7 14
40 4.0 29
56 5.6 72
9 0.9 48
40 4.0 92
68 6.8 35
80 8.0 19
54 5.4 72
18 1.8 37
4 0.4 14
89 8.9 89

18307
471

[3.5033374532237853 1.6571632526473383 2.67455962782056 5.162019565017883 4.780819277157943 1.2020178712888367 1.1848226824024186 1.4000707625634035 0.09888569071208995 1.1043912925985395 5.12043091543674 0.22819485800814046 1.6766684002898844 4.747897850820174 2.733254021643773 5.173808072736943 3.960536642984096 4.310501378643383 0.19048772734791145 1.8158905702513892 4.412117045716229 1.585666541392181 2.3360846805914437 1.2105194569956956 1.6171721759538125 4.551648617264355 4.751033691741217 4.7119010667875685 0.38077669235686123 1.6763722640936205 2.0741414039336923 1.0903264035716433 0.607390561178438 4.181132188584247 2.1154979277829127 2.272063972015194 0.035032867817698474 4.155041886344791 3.9894629365994145 0.2606037743451274 3.949815609104206 2.566574049463636 0.3241817954148863 4.43045463914771 4.165408887560085 4.545700251223242 4.765992776990503 3.699816323827842 3.518611083575163 3.1570162458410396 2.9953605500266027 2.7710061916625217 4.324229673037832 1.703257432071541 3.9329717970428906 1.6213216814227918 3.062148648251735 2.5963942959053417 0.8004226056275643 2.2359959174911777 2.209626385827867 1.4054958741820198 5.0866375328715066 0.9252183846053395 0.30575743671018757 2.899144348551781 3.196601984150286 2.6476252061983394 0.9946593855870715 0.3834939076088197 4.9030710816212695 3.332592730205512 1.3504308025776663 1.708968994019124 4.456151954290542 1.5184292292086046 2.529782141535704 1.4531122253724604 1.7879805238207844 3.859890116173522 3.4975561276887124 2.4599857303847323 0.03157876895363132 0.8346149042403054 1.6122719711334779 0.3287774228069878 4.029043546489676 0.08153298155820501 3.2559307566893443 4.6848394302577026]

[42 67 21 18 59 92 84 82 36 17 2 10 27 19 59 3 100 51 84 1 76 78 3 89 31 67 13 66 32 50 84 10 50 68 19 4 11 55 87 97 26 92 85 76 78 1 92 68 38 75 17 51 100 43 47 6 84 85 99 53 87 49 98 81 22 99 99 97 51 92 72 96 97 22 34 7 65 94 71 17 72 72 73 100 16 40 34 19 5 94]
